data/results/2026_03_24_00_33_24_set_set_set_s002_g001_max.sol
# Objective value = 28
c_n0n2n3 3
c_n0n3n4n6 4
c_n0n4n5n6 4
c_n3n4n6 2
c_n0n4n6 3
c_n0n3n6 3
c_n0n3n4 2
c_n4n5n6 3
c_n0n5n6 2
c_n0n4n5 2
y_n0n1 1
y_n1n2 0
y_n0n2 1
y_n1n3 0
y_n0n3 1
y_n1n4 0
y_n0n4 0
y_n1n5 0
y_n0n5 0
y_n1n6 0
y_n0n6 0
y_n2n3 0
y_n2n4 0
y_n2n5 0
y_n2n6 0
y_n3n4 0
y_n3n5 0
y_n3n6 0
y_n4n5 0
y_n4n6 1
y_n5n6 1
pos_n0 3
pos_n1 6
pos_n2 5
pos_n3 4
pos_n4 1
pos_n5 0
pos_n6 2
z_n2n3 1
z_n3n4 0
z_n3n6 0
z_n3n5 0
z_n2n4 0
z_n2n6 0
z_n2n5 0
z_n4n6 1
z_n4n5 1
z_n5n6 0
z_n0n3 1
z_n1n3 0
z_n0n1 0
z_n0n2 0
z_n0n4 0
z_n0n6 1
z_n0n5 0
